\ Model matlab
\ LP format - for model browsing. Use MPS format to capture full model detail.
Minimize
  3 C0 + 3 C1 + 3 C2 + 4 C4 + 4 C5 + 4 C6 + 10 C8 + 10 C9 + 10 C10
   - 52.55279781214719 C16 - 55.16242316338268 C17 - 57.75772325201154 C18
   + 0.064 C19 + 0.008 C20 + 0.008 C21 + 0.008 C22 + 0.008 C23
   - 52.54479781214719 C28 - 55.15442316338267 C29 - 57.74972325201154 C30
   + 0.072 C31 + 0.008 C32 + 0.008 C33 + 0.008 C34 + 0.008 C35
   + 1.450666666666667 C36 - 73.5124 C37 + 89.62226031934132 C38
   - 171.9788194666674 C39 + 1.450666666666667 C40 - 73.5124 C41
   + 89.62226031934132 C42 - 171.9788194666674 C43 + 1.450666666666667 C44
   - 73.5124 C45 + 89.62226031934132 C46 - 171.9788194666674 C47
   + 1.450666666666667 C48 - 73.5124 C49 + 89.62226031934132 C50
   - 171.9788194666674 C51 - 52.61679781214719 C52 - 55.22642316338268 C53
   - 57.82172325201155 C54 + 2.7904 C56 + 17.5632 C57
   - 7.347425448559644 C58 + 16.23248000000005 C59 + 2.7904 C60
   + 17.5632 C61 - 7.347425448559644 C62 + 16.23248000000005 C63
   + 2.7904 C64 + 17.5632 C65 - 7.347425448559644 C66
   + 16.23248000000005 C67 + 2.7904 C68 + 17.5632 C69
   - 7.347425448559644 C70 + 16.23248000000005 C71 + 52.61679781214719 C72
   + 55.22642316338268 C73 + 57.82172325201155 C74
Subject To
 R0: C16 <= 2
 R1: - C16 <= 3
 R2: 2 C12 + C16 <= 2
 R3: - 3 C12 - C16 <= -2.22045e-16
 R4: <= 8.8
 R5: <= 39.2
 R6: - 2 C12 + C20 <= 0
 R7: - 3 C12 - C20 <= 0
 R8: 3 C12 - C16 + C20 <= 3
 R9: 2 C12 + C16 - C20 <= 2
 R10: C17 <= 2
 R11: - C17 <= 3
 R12: 2 C13 + C17 <= 2
 R13: - 3 C13 - C17 <= -2.22045e-16
 R14: 0.16 C16 + 0.02 C20 <= 8.8
 R15: - 0.16 C16 - 0.02 C20 <= 39.2
 R16: - 2 C13 + C21 <= 0
 R17: - 3 C13 - C21 <= 0
 R18: 3 C13 - C17 + C21 <= 3
 R19: 2 C13 + C17 - C21 <= 2
 R20: C18 <= 2
 R21: - C18 <= 3
 R22: 2 C14 + C18 <= 2
 R23: - 3 C14 - C18 <= -2.22045e-16
 R24: 0.16 C16 + 0.16 C17 + 0.02 C20 + 0.02 C21 <= 8.8
 R25: - 0.16 C16 - 0.16 C17 - 0.02 C20 - 0.02 C21 <= 39.2
 R26: - 2 C14 + C22 <= 0
 R27: - 3 C14 - C22 <= 0
 R28: 3 C14 - C18 + C22 <= 3
 R29: 2 C14 + C18 - C22 <= 2
 R30: C19 <= 2
 R31: - C19 <= 3
 R32: 2 C15 + C19 <= 2
 R33: - 3 C15 - C19 <= -2.22045e-16
 R34: 0.16 C16 + 0.16 C17 + 0.16 C18 + 0.02 C20 + 0.02 C21 + 0.02 C22
   <= 8.8
 R35: - 0.16 C16 - 0.16 C17 - 0.16 C18 - 0.02 C20 - 0.02 C21 - 0.02 C22
   <= 39.2
 R36: - 2 C15 + C23 <= 0
 R37: - 3 C15 - C23 <= 0
 R38: 3 C15 - C19 + C23 <= 3
 R39: 2 C15 + C19 - C23 <= 2
 R40: C28 <= 3
 R41: - C28 <= 4
 R42: 3 C24 + C28 <= 3
 R43: - 4 C24 - C28 <= -2.22045e-16
 R44: <= 8.8
 R45: <= 55.2
 R46: - 3 C24 + C32 <= 0
 R47: - 4 C24 - C32 <= 0
 R48: 4 C24 - C28 + C32 <= 4
 R49: 3 C24 + C28 - C32 <= 3
 R50: C29 <= 3
 R51: - C29 <= 4
 R52: 3 C25 + C29 <= 3
 R53: - 4 C25 - C29 <= -2.22045e-16
 R54: 0.18 C28 + 0.02 C32 <= 8.8
 R55: - 0.18 C28 - 0.02 C32 <= 55.2
 R56: - 3 C25 + C33 <= 0
 R57: - 4 C25 - C33 <= 0
 R58: 4 C25 - C29 + C33 <= 4
 R59: 3 C25 + C29 - C33 <= 3
 R60: C30 <= 3
 R61: - C30 <= 4
 R62: 3 C26 + C30 <= 3
 R63: - 4 C26 - C30 <= -2.22045e-16
 R64: 0.18 C28 + 0.18 C29 + 0.02 C32 + 0.02 C33 <= 8.8
 R65: - 0.18 C28 - 0.18 C29 - 0.02 C32 - 0.02 C33 <= 55.2
 R66: - 3 C26 + C34 <= 0
 R67: - 4 C26 - C34 <= 0
 R68: 4 C26 - C30 + C34 <= 4
 R69: 3 C26 + C30 - C34 <= 3
 R70: C31 <= 3
 R71: - C31 <= 4
 R72: 3 C27 + C31 <= 3
 R73: - 4 C27 - C31 <= -2.22045e-16
 R74: 0.18 C28 + 0.18 C29 + 0.18 C30 + 0.02 C32 + 0.02 C33 + 0.02 C34
   <= 8.8
 R75: - 0.18 C28 - 0.18 C29 - 0.18 C30 - 0.02 C32 - 0.02 C33 - 0.02 C34
   <= 55.2
 R76: - 3 C27 + C35 <= 0
 R77: - 4 C27 - C35 <= 0
 R78: 4 C27 - C31 + C35 <= 4
 R79: 3 C27 + C31 - C35 <= 3
 R80: C52 <= 15
 R81: - C52 <= 2.22045e-16
 R82: C36 + C37 + C38 + C39 <= 1
 R83: <= 1.7504
 R84: <= 108.2496000000001
 R85: - 15 C36 + C56 <= 0
 R86: - C56 <= 0
 R87: - C52 + C56 <= 0
 R88: 15 C36 + C52 - C56 <= 15
 R89: - C52 <= 0
 R90: 10 C36 + C52 <= 15
 R91: - 15 C37 + C57 <= 0
 R92: - C57 <= 0
 R93: - C52 + C57 <= 0
 R94: 15 C37 + C52 - C57 <= 15
 R95: 5 C37 - C52 <= 0
 R96: 8.5 C37 + C52 <= 15
 R97: - 15 C38 + C58 <= 0
 R98: - C58 <= 0
 R99: - 6.5 C38 - C52 + C58 <= 0
 R100: 11 C38 + C52 - C58 <= 15
 R101: 6.5 C38 - C52 <= 0
 R102: 4 C38 + C52 <= 15
 R103: - 15 C39 + C59 <= 0
 R104: - C59 <= 0
 R105: - C52 + C59 <= 0
 R106: 15 C39 + C52 - C59 <= 15
 R107: 11 C39 - C52 <= 0
 R108: - 15 C39 + C52 <= 0
 R109: C53 <= 15
 R110: - C53 <= 2.22045e-16
 R111: C40 + C41 + C42 + C43 <= 1
 R112: 0.3626666666666667 C36 - 18.3781 C37 + 22.40556507983533 C38
   - 42.99470486666684 C39 + 0.6976 C56 + 4.3908 C57
   - 1.836856362139911 C58 + 4.05812 C59 <= 1.8304
 R113: - 0.3626666666666667 C36 + 18.3781 C37 - 22.40556507983533 C38
   + 42.99470486666684 C39 - 0.6976 C56 - 4.3908 C57
   + 1.836856362139911 C58 - 4.05812 C59 <= 108.1696000000001
 R114: - 15 C40 + C60 <= 0
 R115: - C60 <= 0
 R116: - C53 + C60 <= 0
 R117: 15 C40 + C53 - C60 <= 15
 R118: - C53 <= 0
 R119: 10 C40 + C53 <= 15
 R120: - 15 C41 + C61 <= 0
 R121: - C61 <= 0
 R122: - C53 + C61 <= 0
 R123: 15 C41 + C53 - C61 <= 15
 R124: 5 C41 - C53 <= 0
 R125: 8.5 C41 + C53 <= 15
 R126: - 15 C42 + C62 <= 0
 R127: - C62 <= 0
 R128: - 6.5 C42 - C53 + C62 <= 0
 R129: 11 C42 + C53 - C62 <= 15
 R130: 6.5 C42 - C53 <= 0
 R131: 4 C42 + C53 <= 15
 R132: - 15 C43 + C63 <= 0
 R133: - C63 <= 0
 R134: - C53 + C63 <= 0
 R135: 15 C43 + C53 - C63 <= 15
 R136: 11 C43 - C53 <= 0
 R137: - 15 C43 + C53 <= 0
 R138: C54 <= 15
 R139: - C54 <= 2.22045e-16
 R140: C44 + C45 + C46 + C47 <= 1
 R141: 0.3626666666666667 C36 - 18.3781 C37 + 22.40556507983533 C38
   - 42.99470486666684 C39 + 0.3626666666666667 C40 - 18.3781 C41
   + 22.40556507983533 C42 - 42.99470486666684 C43 + 0.6976 C56
   + 4.3908 C57 - 1.836856362139911 C58 + 4.05812 C59 + 0.6976 C60
   + 4.3908 C61 - 1.836856362139911 C62 + 4.05812 C63 <= 1.9104
 R142: - 0.3626666666666667 C36 + 18.3781 C37 - 22.40556507983533 C38
   + 42.99470486666684 C39 - 0.3626666666666667 C40 + 18.3781 C41
   - 22.40556507983533 C42 + 42.99470486666684 C43 - 0.6976 C56
   - 4.3908 C57 + 1.836856362139911 C58 - 4.05812 C59 - 0.6976 C60
   - 4.3908 C61 + 1.836856362139911 C62 - 4.05812 C63 <= 108.0896000000001
 R143: - 15 C44 + C64 <= 0
 R144: - C64 <= 0
 R145: - C54 + C64 <= 0
 R146: 15 C44 + C54 - C64 <= 15
 R147: - C54 <= 0
 R148: 10 C44 + C54 <= 15
 R149: - 15 C45 + C65 <= 0
 R150: - C65 <= 0
 R151: - C54 + C65 <= 0
 R152: 15 C45 + C54 - C65 <= 15
 R153: 5 C45 - C54 <= 0
 R154: 8.5 C45 + C54 <= 15
 R155: - 15 C46 + C66 <= 0
 R156: - C66 <= 0
 R157: - 6.5 C46 - C54 + C66 <= 0
 R158: 11 C46 + C54 - C66 <= 15
 R159: 6.5 C46 - C54 <= 0
 R160: 4 C46 + C54 <= 15
 R161: - 15 C47 + C67 <= 0
 R162: - C67 <= 0
 R163: - C54 + C67 <= 0
 R164: 15 C47 + C54 - C67 <= 15
 R165: 11 C47 - C54 <= 0
 R166: - 15 C47 + C54 <= 0
 R167: C55 <= 15
 R168: - C55 <= 2.22045e-16
 R169: C48 + C49 + C50 + C51 <= 1
 R170: 0.3626666666666667 C36 - 18.3781 C37 + 22.40556507983533 C38
   - 42.99470486666684 C39 + 0.3626666666666667 C40 - 18.3781 C41
   + 22.40556507983533 C42 - 42.99470486666684 C43 + 0.3626666666666667 C44
   - 18.3781 C45 + 22.40556507983533 C46 - 42.99470486666684 C47
   + 0.6976 C56 + 4.3908 C57 - 1.836856362139911 C58 + 4.05812 C59
   + 0.6976 C60 + 4.3908 C61 - 1.836856362139911 C62 + 4.05812 C63
   + 0.6976 C64 + 4.3908 C65 - 1.836856362139911 C66 + 4.05812 C67
   <= 1.9904
 R171: - 0.3626666666666667 C36 + 18.3781 C37 - 22.40556507983533 C38
   + 42.99470486666684 C39 - 0.3626666666666667 C40 + 18.3781 C41
   - 22.40556507983533 C42 + 42.99470486666684 C43 - 0.3626666666666667 C44
   + 18.3781 C45 - 22.40556507983533 C46 + 42.99470486666684 C47
   - 0.6976 C56 - 4.3908 C57 + 1.836856362139911 C58 - 4.05812 C59
   - 0.6976 C60 - 4.3908 C61 + 1.836856362139911 C62 - 4.05812 C63
   - 0.6976 C64 - 4.3908 C65 + 1.836856362139911 C66 - 4.05812 C67
   <= 108.0096000000001
 R172: - 15 C48 + C68 <= 0
 R173: - C68 <= 0
 R174: - C55 + C68 <= 0
 R175: 15 C48 + C55 - C68 <= 15
 R176: - C55 <= 0
 R177: 10 C48 + C55 <= 15
 R178: - 15 C49 + C69 <= 0
 R179: - C69 <= 0
 R180: - C55 + C69 <= 0
 R181: 15 C49 + C55 - C69 <= 15
 R182: 5 C49 - C55 <= 0
 R183: 8.5 C49 + C55 <= 15
 R184: - 15 C50 + C70 <= 0
 R185: - C70 <= 0
 R186: - 6.5 C50 - C55 + C70 <= 0
 R187: 11 C50 + C55 - C70 <= 15
 R188: 6.5 C50 - C55 <= 0
 R189: 4 C50 + C55 <= 15
 R190: - 15 C51 + C71 <= 0
 R191: - C71 <= 0
 R192: - C55 + C71 <= 0
 R193: 15 C51 + C55 - C71 <= 15
 R194: 11 C51 - C55 <= 0
 R195: - 15 C51 + C55 <= 0
 R196: C13 + C25 + C40 + C72 <= 0
 R197: C16 + C28 + C49 + C73 <= 0
 R198: C19 + C31 + C58 + C74 <= 0
 R199: C22 + C34 + C67 + C75 <= 0
 R200: - C13 - C25 - C40 - C72 <= 0
 R201: - C16 - C28 - C49 - C73 <= 0
 R202: - C19 - C31 - C58 - C74 <= 0
 R203: - C22 - C34 - C67 - C75 <= 0
 R204: - C0 - C12 <= 0
 R205: - C1 + C12 - C13 <= 0
 R206: - C2 + C13 - C14 <= 0
 R207: - C3 + C14 - C15 <= 0
 R208: - C4 - C24 <= 0
 R209: - C5 + C24 - C25 <= 0
 R210: - C6 + C25 - C26 <= 0
 R211: - C7 + C26 - C27 <= 0
 R212: - C8 - C36 - C37 - C38 - C39 <= 0
 R213: - C9 + C36 + C37 + C38 + C39 - C40 - C41 - C42 - C43 <= 0
 R214: - C10 + C40 + C41 + C42 + C43 - C44 - C45 - C46 - C47 <= 0
 R215: - C11 + C44 + C45 + C46 + C47 - C48 - C49 - C50 - C51 <= 0
 R216: - C0 + C12 <= 0
 R217: - C1 - C12 + C13 <= 0
 R218: - C2 - C13 + C14 <= 0
 R219: - C3 - C14 + C15 <= 0
 R220: - C4 + C24 <= 0
 R221: - C5 - C24 + C25 <= 0
 R222: - C6 - C25 + C26 <= 0
 R223: - C7 - C26 + C27 <= 0
 R224: - C8 + C36 + C37 + C38 + C39 <= 0
 R225: - C9 - C36 - C37 - C38 - C39 + C40 + C41 + C42 + C43 <= 0
 R226: - C10 - C40 - C41 - C42 - C43 + C44 + C45 + C46 + C47 <= 0
 R227: - C11 - C44 - C45 - C46 - C47 + C48 + C49 + C50 + C51 <= 0
Bounds
Binaries
 C12 C13 C14 C15 C24 C25 C26 C27 C36 C37 C38 C39 C40 C41 C42 C43 C44 C45
 C46 C47 C48 C49 C50 C51
Semi-continuous
 C20 C21 C22 C23 C32 C33 C34 C35 C56 C57 C58 C59 C60 C61 C62 C63 C64 C65
 C66 C67 C68 C69 C70 C71
End
